<number of tasks>
58

<cycle time>
74

<task times>
1 10
2 53
3 41
4 36
5 35
6 17
7 34
8 23
9 14
10 52
11 33
12 34
13 12
14 52
15 12
16 33
17 44
18 7
19 15
20 13
21 29
22 37
23 43
24 23
25 24
26 9
27 16
28 12
29 26
30 22
31 51
32 47
33 34
34 23
35 12
36 52
37 12
38 33
39 44
40 7
41 15
42 13
43 29
44 37
45 43
46 23
47 24
48 9
49 16
50 12
51 26
52 12
53 52
54 12
55 33
56 44
57 7
58 15

<precedence relations>
1,9
2,25
3,21
3,22
4,10
5,36
6,23
6,24
7,43
8,44
9,11
11,13
11,14
11,15
12,17
13,17
14,17
15,17
16,18
17,20
18,19
19,23
20,21
20,25
21,26
21,44
22,27
23,31
24,31
25,38
26,29
27,30
28,32
28,33
29,31
30,34
31,36
32,45
33,35
34,36
35,43
36,37
36,38
37,39
37,40
37,41
38,52
39,43
40,43
41,42
42,43
43,45
44,45
45,46
45,48
45,49
46,47
46,50
47,51
48,55
49,58
50,58
51,52
52,53
53,54
54,55
54,56
55,57
56,57
57,58

<setup times forward>
1,2:8
1,3:3
1,4:11
1,5:5
1,6:3
1,7:6
1,10:8
1,16:3
1,18:6
1,19:5
1,22:11
1,23:4
1,24:6
1,28:8
1,30:1
1,33:2
1,34:5
1,35:7
2,1:8
2,3:5
2,4:3
2,5:3
2,6:5
2,7:2
2,8:8
2,9:8
2,11:2
2,12:8
2,13:3
2,14:9
2,15:3
2,16:5
2,17:5
2,18:2
2,19:3
2,20:5
2,21:12
2,22:3
2,23:12
2,24:14
2,25:14
2,27:8
2,29:14
2,30:9
2,31:3
2,32:8
2,33:6
2,34:3
2,35:15
2,36:1
2,37:15
2,39:15
2,40:14
2,41:14
2,42:14
2,43:3
2,44:6
2,45:3
2,46:7
2,47:7
2,49:12
2,51:7
3,1:3
3,2:5
3,4:8
3,5:2
3,7:3
3,8:3
3,9:3
3,10:5
3,11:3
3,12:3
3,13:2
3,14:4
3,15:2
3,18:3
3,19:2
3,21:7
3,22:8
3,23:7
3,24:9
3,25:9
3,28:5
3,32:3
3,33:1
3,35:10
4,1:11
4,2:3
4,3:8
4,5:6
4,6:8
4,7:5
4,8:11
4,9:11
4,10:3
4,11:5
4,12:11
4,13:6
4,14:12
4,15:6
4,16:8
4,17:8
4,18:5
4,19:6
4,20:8
4,21:15
4,23:15
4,24:17
4,25:17
4,26:3
4,27:11
4,28:3
4,29:17
4,30:12
4,31:6
4,32:11
4,33:9
4,34:6
4,35:18
4,36:2
4,37:18
4,38:17
4,39:18
4,40:17
4,41:17
4,42:17
4,44:9
4,46:10
4,47:10
4,48:3
4,49:15
4,50:3
4,51:10
4,52:6
4,53:6
4,54:2
4,55:15
4,56:2
4,57:15
4,58:15
5,1:5
5,2:3
5,3:2
5,4:6
5,6:2
5,7:1
5,8:5
5,9:5
5,10:3
5,11:1
5,12:5
5,14:6
5,16:2
5,17:2
5,18:1
5,20:2
5,21:9
5,22:6
5,23:9
5,24:11
5,25:11
5,26:3
5,27:5
5,28:3
5,29:11
5,30:6
5,32:5
5,33:3
5,35:12
5,36:4
5,44:3
6,1:3
6,2:5
6,4:8
6,5:2
6,7:3
6,8:3
6,9:3
6,10:5
6,11:3
6,12:3
6,13:2
6,14:4
6,15:2
6,18:3
6,19:2
6,21:7
6,22:8
6,23:7
6,24:9
6,25:9
6,26:5
6,27:3
6,28:5
6,29:9
6,30:4
6,32:3
6,33:1
6,34:2
6,35:10
6,44:1
7,1:6
7,2:2
7,3:3
7,4:5
7,5:1
7,6:3
7,8:6
7,9:6
7,10:2
7,12:6
7,13:1
7,14:7
7,15:1
7,16:3
7,17:3
7,19:1
7,20:3
7,21:10
7,22:5
7,23:10
7,24:12
7,25:12
7,26:2
7,27:6
7,28:2
7,29:12
7,30:7
7,31:1
7,32:6
7,33:4
7,34:1
7,35:13
7,36:3
7,37:13
7,38:12
7,39:13
7,40:12
7,41:12
7,42:12
7,43:5
7,44:4
8,2:8
8,3:3
8,4:11
8,5:5
8,6:3
8,7:6
8,10:8
8,11:6
8,13:5
8,14:1
8,15:5
8,16:3
8,17:3
8,18:6
8,19:5
8,20:3
8,21:4
8,22:11
8,23:4
8,24:6
8,25:6
8,26:8
8,28:8
8,29:6
8,30:1
8,31:5
8,33:2
8,34:5
8,35:7
8,36:9
8,37:7
8,38:6
8,39:7
8,40:6
8,41:6
8,42:6
8,43:11
8,44:2
9,2:8
9,3:3
9,4:11
9,5:5
9,6:3
9,7:6
9,10:8
9,11:6
9,16:3
9,18:6
9,19:5
9,22:11
9,23:4
9,24:6
9,28:8
9,30:1
9,33:2
9,34:5
9,35:7
10,1:8
10,3:5
10,5:3
10,6:5
10,7:2
10,8:8
10,9:8
10,11:2
10,12:8
10,13:3
10,14:9
10,15:3
10,16:5
10,17:5
10,18:2
10,19:3
10,20:5
10,21:12
10,22:3
10,23:12
10,24:14
10,25:14
10,27:8
10,29:14
10,30:9
10,31:3
10,32:8
10,33:6
10,34:3
10,35:15
10,36:1
10,37:15
10,38:14
10,39:15
10,40:14
10,41:14
10,42:14
10,43:3
10,44:6
10,45:3
10,46:7
10,47:7
10,49:12
10,51:7
10,52:3
10,53:3
10,54:1
10,55:12
10,56:1
10,57:12
10,58:12
11,2:2
11,3:3
11,4:5
11,5:1
11,6:3
11,8:6
11,10:2
11,12:6
11,13:1
11,14:7
11,15:1
11,16:3
11,19:1
11,22:5
11,23:10
11,24:12
11,27:6
11,28:2
11,30:7
11,32:6
11,33:4
11,34:1
11,35:13
12,2:8
12,3:3
12,4:11
12,5:5
12,6:3
12,7:6
12,10:8
12,11:6
12,13:5
12,14:1
12,15:5
12,16:3
12,17:3
12,18:6
12,19:5
12,22:11
12,23:4
12,24:6
12,28:8
12,30:1
12,33:2
12,34:5
12,35:7
13,2:3
13,3:2
13,4:6
13,6:2
13,7:1
13,8:5
13,10:3
13,12:5
13,14:6
13,16:2
13,17:2
13,18:1
13,22:6
13,23:9
13,24:11
13,27:5
13,28:3
13,30:6
13,32:5
13,33:3
13,35:12
14,2:9
14,3:4
14,4:12
14,5:6
14,6:4
14,7:7
14,8:1
14,10:9
14,12:1
14,13:6
14,15:6
14,16:4
14,17:4
14,18:7
14,19:6
14,22:12
14,23:3
14,24:5
14,27:1
14,28:9
14,32:1
14,33:3
14,34:6
14,35:6
15,2:3
15,3:2
15,4:6
15,6:2
15,7:1
15,8:5
15,10:3
15,12:5
15,14:6
15,16:2
15,17:2
15,18:1
15,22:6
15,23:9
15,24:11
15,27:5
15,28:3
15,30:6
15,32:5
15,33:3
15,35:12
16,1:3
16,2:5
16,4:8
16,5:2
16,7:3
16,8:3
16,9:3
16,10:5
16,11:3
16,12:3
16,13:2
16,14:4
16,15:2
16,18:3
16,21:7
16,22:8
16,24:9
16,25:9
16,26:5
16,27:3
16,28:5
16,29:9
16,30:4
16,32:3
16,33:1
16,34:2
16,35:10
16,44:1
17,2:5
17,4:8
17,5:2
17,7:3
17,8:3
17,10:5
17,18:3
17,19:2
17,22:8
17,23:7
17,24:9
17,27:3
17,28:5
17,30:4
17,32:3
17,33:1
17,34:2
17,35:10
18,1:6
18,2:2
18,3:3
18,4:5
18,5:1
18,6:3
18,8:6
18,9:6
18,10:2
18,12:6
18,13:1
18,14:7
18,15:1
18,17:3
18,19:1
18,20:3
18,21:10
18,22:5
18,24:12
18,25:12
18,26:2
18,27:6
18,28:2
18,29:12
18,30:7
18,32:6
18,33:4
18,34:1
18,35:13
18,44:4
19,1:5
19,2:3
19,3:2
19,4:6
19,6:2
19,7:1
19,8:5
19,9:5
19,10:3
19,11:1
19,12:5
19,14:6
19,17:2
19,20:2
19,21:9
19,22:6
19,23:9
19,24:11
19,25:11
19,26:3
19,27:5
19,28:3
19,29:11
19,30:6
19,32:5
19,33:3
19,35:12
19,44:3
20,2:5
20,4:8
20,5:2
20,7:3
20,8:3
20,10:5
20,18:3
20,19:2
20,21:7
20,22:8
20,23:7
20,24:9
20,25:9
20,27:3
20,28:5
20,30:4
20,32:3
20,33:1
20,34:2
20,35:10
21,2:12
21,4:15
21,5:9
21,6:7
21,7:10
21,8:4
21,10:12
21,16:7
21,18:10
21,19:9
21,22:15
21,24:2
21,25:2
21,26:12
21,27:4
21,28:12
21,30:3
21,32:4
21,33:6
21,34:9
21,35:3
21,44:6
22,1:11
22,2:3
22,5:6
22,6:8
22,7:5
22,8:11
22,9:11
22,10:3
22,11:5
22,12:11
22,13:6
22,14:12
22,15:6
22,16:8
22,17:8
22,18:5
22,19:6
22,20:8
22,21:15
22,23:15
22,24:17
22,25:17
22,26:3
22,27:11
22,28:3
22,29:17
22,31:6
22,32:11
22,33:9
22,35:18
22,44:9
23,1:4
23,2:12
23,3:7
23,4:15
23,5:9
23,7:10
23,8:4
23,9:4
23,10:12
23,11:10
23,12:4
23,13:9
23,14:3
23,15:9
23,17:7
23,20:7
23,22:15
23,24:2
23,25:2
23,26:12
23,27:4
23,28:12
23,29:2
23,30:3
23,31:9
23,32:4
23,33:6
23,34:9
23,35:3
23,44:6
24,1:6
24,2:14
24,3:9
24,4:17
24,5:11
24,7:12
24,8:6
24,9:6
24,10:14
24,11:12
24,12:6
24,13:11
24,14:5
24,15:11
24,16:9
24,17:9
24,18:12
24,19:11
24,20:9
24,21:2
24,22:17
24,23:2
24,26:14
24,27:6
24,28:14
24,30:5
24,31:11
24,32:6
24,33:8
24,34:11
24,35:1
24,44:8
25,3:9
25,4:17
25,5:11
25,6:9
25,7:12
25,8:6
25,10:14
25,16:9
25,18:12
25,19:11
25,21:2
25,22:17
25,23:2
25,26:14
25,27:6
25,28:14
25,30:5
25,31:11
25,32:6
25,33:8
25,34:11
25,35:1
25,36:15
25,37:1
25,39:1
25,43:17
25,44:8
25,45:17
25,46:7
25,47:7
25,48:14
25,49:2
25,50:14
25,51:7
26,4:3
26,5:3
26,6:5
26,7:2
26,8:8
26,16:5
26,18:2
26,19:3
26,22:3
26,23:12
26,24:14
26,25:14
26,27:8
26,29:14
26,30:9
26,32:8
26,33:6
26,34:3
26,35:15
26,44:6
27,2:8
27,4:11
27,5:5
27,6:3
27,7:6
27,10:8
27,11:6
27,13:5
27,14:1
27,15:5
27,16:3
27,17:3
27,18:6
27,19:5
27,20:3
27,21:4
27,23:4
27,24:6
27,25:6
27,26:8
27,28:8
27,29:6
27,30:1
27,31:5
27,33:2
27,35:7
27,44:2
28,1:8
28,3:5
28,4:3
28,5:3
28,6:5
28,7:2
28,8:8
28,9:8
28,11:2
28,12:8
28,13:3
28,14:9
28,15:3
28,16:5
28,17:5
28,18:2
28,19:3
28,20:5
28,21:12
28,22:3
28,23:12
28,24:14
28,25:14
28,27:8
28,29:14
28,30:9
28,31:3
28,32:8
28,33:6
28,34:3
28,36:1
28,37:15
28,38:14
28,39:15
28,40:14
28,41:14
28,42:14
28,44:6
29,2:14
29,4:17
29,5:11
29,6:9
29,7:12
29,8:6
29,10:14
29,16:9
29,18:12
29,19:11
29,22:17
29,23:2
29,27:6
29,28:14
29,30:5
29,31:11
29,32:6
29,33:8
29,34:11
29,35:1
29,44:8
30,1:1
30,2:9
30,4:12
30,5:6
30,6:4
30,7:7
30,8:1
30,9:1
30,10:9
30,11:7
30,12:1
30,13:6
30,15:6
30,16:4
30,17:4
30,18:7
30,19:6
30,20:4
30,21:3
30,23:3
30,24:5
30,25:5
30,26:9
30,28:9
30,29:5
30,31:6
30,32:1
30,33:3
30,34:6
30,35:6
30,44:3
31,2:3
31,4:6
31,7:1
31,8:5
31,10:3
31,22:6
31,25:11
31,27:5
31,28:3
31,30:6
31,32:5
31,33:3
31,35:12
31,36:4
31,44:3
32,2:8
32,3:3
32,4:11
32,5:5
32,6:3
32,7:6
32,10:8
32,11:6
32,13:5
32,14:1
32,15:5
32,16:3
32,17:3
32,18:6
32,19:5
32,20:3
32,21:4
32,22:11
32,23:4
32,24:6
32,25:6
32,26:8
32,29:6
32,30:1
32,31:5
32,33:2
32,34:5
32,35:7
32,36:9
32,37:7
32,38:6
32,39:7
32,40:6
32,41:6
32,42:6
32,43:11
32,44:2
32,45:11
33,1:2
33,2:6
33,3:1
33,4:9
33,5:3
33,6:1
33,7:4
33,8:2
33,9:2
33,10:6
33,11:4
33,12:2
33,13:3
33,14:3
33,15:3
33,16:1
33,17:1
33,18:4
33,19:3
33,20:1
33,21:6
33,22:9
33,23:6
33,24:8
33,25:8
33,26:6
33,27:2
33,29:8
33,30:3
33,31:3
33,32:2
33,34:3
33,35:9
33,36:7
33,37:9
33,38:8
33,39:9
33,40:8
33,41:8
33,42:8
34,1:5
34,2:3
34,4:6
34,6:2
34,7:1
34,8:5
34,9:5
34,10:3
34,11:1
34,12:5
34,14:6
34,16:2
34,17:2
34,18:1
34,20:2
34,21:9
34,23:9
34,24:11
34,25:11
34,26:3
34,28:3
34,29:11
34,32:5
34,33:3
34,35:12
34,36:4
34,44:3
35,1:7
35,2:15
35,3:10
35,4:18
35,5:12
35,6:10
35,7:13
35,8:7
35,9:7
35,10:15
35,11:13
35,12:7
35,13:12
35,14:6
35,15:12
35,16:10
35,17:10
35,18:13
35,19:12
35,20:10
35,21:3
35,22:18
35,23:3
35,24:1
35,25:1
35,26:15
35,27:7
35,29:1
35,30:6
35,31:12
35,32:7
35,34:12
35,36:16
35,38:1
35,40:1
35,41:1
35,42:1
35,43:18
35,44:9
36,2:1
36,4:2
36,7:3
36,8:9
36,10:1
36,25:15
36,28:1
36,32:9
36,33:7
36,35:16
36,37:16
36,38:15
36,44:7
37,2:15
37,4:18
37,7:13
37,8:7
37,10:15
37,25:1
37,28:15
37,32:7
37,33:9
37,38:1
37,40:1
37,41:1
37,44:9
38,4:17
38,7:12
38,8:6
38,10:14
38,28:14
38,32:6
38,33:8
38,35:1
38,37:1
38,39:1
38,43:17
38,44:8
38,45:17
38,46:7
38,47:7
38,48:14
38,49:2
38,50:14
38,51:7
38,52:11
39,2:15
39,4:18
39,7:13
39,8:7
39,10:15
39,25:1
39,28:15
39,32:7
39,33:9
39,38:1
39,40:1
39,41:1
39,42:1
39,43:18
39,44:9
40,2:14
40,4:17
40,7:12
40,8:6
40,10:14
40,28:14
40,32:6
40,33:8
40,35:1
40,39:1
40,43:17
40,44:8
41,2:14
41,4:17
41,7:12
41,8:6
41,10:14
41,28:14
41,32:6
41,33:8
41,35:1
41,39:1
41,44:8
42,2:14
42,4:17
42,7:12
42,8:6
42,10:14
42,28:14
42,32:6
42,33:8
42,35:1
42,39:1
42,43:17
42,44:8
43,2:3
43,8:11
43,10:3
43,25:17
43,32:11
43,38:17
43,44:9
44,2:6
44,4:9
44,5:3
44,6:1
44,7:4
44,10:6
44,16:1
44,18:4
44,19:3
44,22:9
44,23:6
44,24:8
44,25:8
44,26:6
44,27:2
44,28:6
44,29:8
44,30:3
44,31:3
44,32:2
44,34:3
44,35:9
44,36:7
44,37:9
44,38:8
44,39:9
44,40:8
44,41:8
44,42:8
44,43:9
44,45:9
45,2:3
45,10:3
45,25:17
45,38:17
45,46:10
45,48:3
45,49:15
46,2:7
46,4:10
46,10:7
46,25:7
46,38:7
46,48:7
46,49:5
46,50:7
47,2:7
47,4:10
47,10:7
47,25:7
47,38:7
47,48:7
47,49:5
47,50:7
48,4:3
48,25:14
48,38:14
48,46:7
48,47:7
48,49:12
48,51:7
48,52:3
48,53:3
48,54:1
48,55:12
48,56:1
49,2:12
49,4:15
49,10:12
49,25:2
49,38:2
49,46:5
49,47:5
49,48:12
49,50:12
49,51:5
49,52:9
49,53:9
49,54:13
49,56:13
50,4:3
50,25:14
50,38:14
50,47:7
50,49:12
50,51:7
50,52:3
50,53:3
50,54:1
50,55:12
50,56:1
50,57:12
50,58:12
51,2:7
51,4:10
51,10:7
51,25:7
51,38:7
51,48:7
51,49:5
51,50:7
51,52:4
52,4:6
52,10:3
52,48:3
52,49:9
52,50:3
53,4:6
53,10:3
53,48:3
53,49:9
53,50:3
53,54:4
54,4:2
54,10:1
54,48:1
54,49:13
54,50:1
54,55:13
55,4:15
55,10:12
55,50:12
55,56:13
56,4:2
56,10:1
56,48:1
56,49:13
56,50:1
56,55:13
56,57:13
57,4:15
57,10:12
57,50:12
58,4:15
58,10:12

<setup times backward>
1,23:4
1,24:6
1,30:1
1,35:7
2,1:8
2,3:5
2,5:3
2,6:5
2,7:2
2,8:8
2,9:8
2,11:2
2,12:8
2,13:3
2,14:9
2,15:3
2,16:5
2,17:5
2,18:2
2,19:3
2,20:5
2,21:12
2,23:12
2,24:14
2,27:8
2,29:14
2,30:9
2,31:3
2,32:8
2,33:6
2,34:3
2,35:15
2,37:15
2,39:15
2,40:14
2,41:14
2,42:14
2,44:6
2,46:7
2,47:7
2,49:12
2,51:7
3,1:3
3,8:3
3,9:3
3,12:3
3,14:4
3,23:7
3,24:9
3,25:9
3,32:3
3,33:1
3,35:10
4,1:11
4,2:3
4,3:8
4,5:6
4,6:8
4,7:5
4,8:11
4,9:11
4,11:5
4,12:11
4,13:6
4,14:12
4,15:6
4,16:8
4,17:8
4,18:5
4,19:6
4,20:8
4,21:15
4,23:15
4,24:17
4,25:17
4,26:3
4,27:11
4,28:3
4,29:17
4,30:12
4,31:6
4,32:11
4,33:9
4,34:6
4,35:18
4,36:2
4,37:18
4,38:17
4,39:18
4,40:17
4,41:17
4,42:17
4,44:9
4,46:10
4,47:10
4,48:3
4,49:15
4,50:3
4,51:10
4,52:6
4,53:6
4,54:2
4,55:15
4,56:2
4,57:15
4,58:15
5,1:5
5,3:2
5,6:2
5,8:5
5,9:5
5,12:5
5,14:6
5,16:2
5,17:2
5,20:2
5,21:9
5,23:9
5,24:11
5,25:11
5,27:5
5,29:11
5,30:6
5,32:5
5,33:3
5,35:12
5,44:3
6,1:3
6,8:3
6,9:3
6,12:3
6,14:4
6,21:7
6,25:9
6,27:3
6,29:9
6,30:4
6,32:3
6,33:1
6,35:10
6,44:1
7,1:6
7,3:3
7,5:1
7,6:3
7,8:6
7,9:6
7,12:6
7,13:1
7,14:7
7,15:1
7,16:3
7,17:3
7,19:1
7,20:3
7,21:10
7,23:10
7,24:12
7,25:12
7,27:6
7,29:12
7,30:7
7,31:1
7,32:6
7,33:4
7,34:1
7,35:13
7,37:13
7,38:12
7,39:13
7,40:12
7,41:12
7,42:12
7,44:4
8,14:1
8,21:4
8,23:4
8,24:6
8,25:6
8,29:6
8,30:1
8,35:7
8,37:7
8,38:6
8,39:7
8,40:6
8,41:6
8,42:6
9,23:4
9,24:6
9,30:1
9,35:7
10,1:8
10,3:5
10,5:3
10,6:5
10,7:2
10,8:8
10,9:8
10,11:2
10,12:8
10,13:3
10,14:9
10,15:3
10,16:5
10,17:5
10,18:2
10,19:3
10,20:5
10,21:12
10,23:12
10,24:14
10,25:14
10,27:8
10,29:14
10,30:9
10,31:3
10,32:8
10,33:6
10,34:3
10,35:15
10,37:15
10,38:14
10,39:15
10,40:14
10,41:14
10,42:14
10,44:6
10,46:7
10,47:7
10,49:12
10,51:7
10,52:3
10,53:3
10,55:12
10,57:12
10,58:12
11,1:6
11,3:3
11,5:1
11,6:3
11,8:6
11,9:6
11,12:6
11,16:3
11,19:1
11,23:10
11,24:12
11,27:6
11,30:7
11,32:6
11,33:4
11,34:1
11,35:13
12,14:1
12,23:4
12,24:6
12,30:1
12,35:7
13,1:5
13,3:2
13,6:2
13,8:5
13,9:5
13,12:5
13,14:6
13,16:2
13,23:9
13,24:11
13,27:5
13,30:6
13,32:5
13,33:3
13,35:12
14,23:3
14,24:5
14,35:6
15,1:5
15,3:2
15,6:2
15,8:5
15,9:5
15,12:5
15,14:6
15,16:2
15,23:9
15,24:11
15,27:5
15,30:6
15,32:5
15,33:3
15,35:12
16,1:3
16,8:3
16,9:3
16,12:3
16,14:4
16,21:7
16,24:9
16,25:9
16,27:3
16,29:9
16,30:4
16,32:3
16,33:1
16,35:10
16,44:1
17,1:3
17,8:3
17,9:3
17,12:3
17,14:4
17,23:7
17,24:9
17,27:3
17,30:4
17,32:3
17,33:1
17,35:10
18,1:6
18,3:3
18,5:1
18,6:3
18,8:6
18,9:6
18,12:6
18,13:1
18,14:7
18,15:1
18,16:3
18,17:3
18,20:3
18,21:10
18,24:12
18,25:12
18,27:6
18,29:12
18,30:7
18,32:6
18,33:4
18,34:1
18,35:13
18,44:4
19,1:5
19,3:2
19,6:2
19,8:5
19,9:5
19,12:5
19,14:6
19,16:2
19,17:2
19,20:2
19,21:9
19,24:11
19,25:11
19,27:5
19,29:11
19,30:6
19,32:5
19,33:3
19,35:12
19,44:3
20,1:3
20,8:3
20,9:3
20,12:3
20,14:4
20,23:7
20,24:9
20,27:3
20,30:4
20,32:3
20,33:1
20,35:10
21,24:2
21,25:2
21,35:3
22,1:11
22,2:3
22,3:8
22,5:6
22,6:8
22,7:5
22,8:11
22,9:11
22,10:3
22,11:5
22,12:11
22,13:6
22,14:12
22,15:6
22,16:8
22,17:8
22,18:5
22,19:6
22,20:8
22,21:15
22,23:15
22,24:17
22,25:17
22,26:3
22,28:3
22,29:17
22,31:6
22,32:11
22,33:9
22,35:18
22,44:9
23,24:2
23,25:2
23,29:2
23,35:3
24,35:1
25,35:1
25,37:1
25,39:1
26,1:8
26,3:5
26,5:3
26,6:5
26,7:2
26,8:8
26,9:8
26,11:2
26,12:8
26,13:3
26,14:9
26,15:3
26,16:5
26,17:5
26,18:2
26,19:3
26,20:5
26,21:12
26,23:12
26,24:14
26,25:14
26,27:8
26,30:9
26,32:8
26,33:6
26,34:3
26,35:15
26,44:6
27,14:1
27,21:4
27,23:4
27,24:6
27,25:6
27,29:6
27,35:7
28,1:8
28,3:5
28,5:3
28,6:5
28,7:2
28,8:8
28,9:8
28,11:2
28,12:8
28,13:3
28,14:9
28,15:3
28,16:5
28,17:5
28,18:2
28,19:3
28,20:5
28,21:12
28,23:12
28,24:14
28,25:14
28,27:8
28,29:14
28,30:9
28,31:3
28,34:3
28,37:15
28,38:14
28,39:15
28,40:14
28,41:14
28,42:14
28,44:6
29,35:1
30,21:3
30,23:3
30,24:5
30,25:5
30,29:5
30,35:6
31,1:5
31,3:2
31,6:2
31,8:5
31,9:5
31,12:5
31,14:6
31,16:2
31,17:2
31,20:2
31,21:9
31,23:9
31,24:11
31,25:11
31,27:5
31,29:11
31,30:6
31,32:5
31,33:3
31,35:12
31,44:3
32,14:1
32,21:4
32,23:4
32,24:6
32,25:6
32,29:6
32,30:1
32,35:7
32,37:7
32,38:6
32,39:7
32,40:6
32,41:6
32,42:6
33,1:2
33,8:2
33,9:2
33,12:2
33,14:3
33,21:6
33,23:6
33,24:8
33,25:8
33,27:2
33,29:8
33,30:3
33,32:2
33,37:9
33,38:8
33,39:9
33,40:8
33,41:8
33,42:8
34,1:5
34,3:2
34,6:2
34,8:5
34,9:5
34,12:5
34,14:6
34,16:2
34,17:2
34,20:2
34,21:9
34,23:9
34,24:11
34,25:11
34,27:5
34,29:11
34,30:6
34,32:5
34,33:3
34,35:12
34,44:3
36,1:9
36,2:1
36,3:6
36,5:4
36,6:6
36,7:3
36,8:9
36,9:9
36,10:1
36,11:3
36,12:9
36,13:4
36,14:10
36,15:4
36,16:6
36,17:6
36,18:3
36,19:4
36,20:6
36,21:13
36,23:13
36,24:15
36,25:15
36,26:1
36,27:9
36,28:1
36,29:15
36,30:10
36,31:4
36,32:9
36,33:7
36,34:4
36,35:16
36,44:7
38,35:1
38,37:1
38,39:1
40,35:1
40,37:1
40,39:1
41,35:1
41,37:1
41,39:1
42,35:1
42,37:1
42,39:1
43,1:11
43,2:3
43,3:8
43,5:6
43,6:8
43,7:5
43,8:11
43,9:11
43,10:3
43,11:5
43,12:11
43,13:6
43,14:12
43,15:6
43,16:8
43,17:8
43,18:5
43,19:6
43,20:8
43,21:15
43,23:15
43,24:17
43,25:17
43,26:3
43,27:11
43,28:3
43,29:17
43,30:12
43,31:6
43,32:11
43,33:9
43,34:6
43,35:18
43,36:2
43,37:18
43,38:17
43,39:18
43,40:17
43,41:17
43,42:17
43,44:9
44,1:2
44,8:2
44,9:2
44,12:2
44,14:3
44,21:6
44,23:6
44,24:8
44,25:8
44,27:2
44,29:8
44,30:3
44,32:2
44,35:9
44,37:9
44,38:8
44,39:9
44,40:8
44,41:8
44,42:8
45,1:11
45,2:3
45,3:8
45,5:6
45,6:8
45,7:5
45,8:11
45,9:11
45,10:3
45,11:5
45,12:11
45,13:6
45,14:12
45,15:6
45,16:8
45,17:8
45,18:5
45,19:6
45,20:8
45,21:15
45,23:15
45,24:17
45,25:17
45,26:3
45,27:11
45,28:3
45,29:17
45,30:12
45,31:6
45,32:11
45,33:9
45,34:6
45,35:18
45,36:2
45,37:18
45,38:17
45,39:18
45,40:17
45,41:17
45,42:17
45,44:9
46,1:1
46,8:1
46,9:1
46,12:1
46,14:2
46,21:5
46,23:5
46,24:7
46,25:7
46,27:1
46,29:7
46,30:2
46,32:1
46,35:8
46,37:8
46,38:7
46,39:8
46,40:7
46,41:7
46,42:7
46,49:5
47,1:1
47,8:1
47,9:1
47,12:1
47,14:2
47,21:5
47,23:5
47,24:7
47,25:7
47,27:1
47,29:7
47,30:2
47,32:1
47,35:8
47,37:8
47,38:7
47,39:8
47,40:7
47,41:7
47,42:7
47,49:5
48,1:8
48,3:5
48,5:3
48,6:5
48,7:2
48,8:8
48,9:8
48,11:2
48,12:8
48,13:3
48,14:9
48,15:3
48,16:5
48,17:5
48,18:2
48,19:3
48,20:5
48,21:12
48,23:12
48,24:14
48,25:14
48,27:8
48,29:14
48,30:9
48,31:3
48,32:8
48,33:6
48,34:3
48,35:15
48,37:15
48,38:14
48,39:15
48,40:14
48,41:14
48,42:14
48,44:6
48,46:7
48,47:7
48,49:12
48,51:7
48,52:3
48,53:3
49,24:2
49,25:2
49,29:2
49,35:3
49,37:3
49,38:2
49,39:3
49,40:2
49,41:2
49,42:2
50,1:8
50,3:5
50,5:3
50,6:5
50,7:2
50,8:8
50,9:8
50,11:2
50,12:8
50,13:3
50,14:9
50,15:3
50,16:5
50,17:5
50,18:2
50,19:3
50,20:5
50,21:12
50,23:12
50,24:14
50,25:14
50,27:8
50,29:14
50,30:9
50,31:3
50,32:8
50,33:6
50,34:3
50,35:15
50,37:15
50,38:14
50,39:15
50,40:14
50,41:14
50,42:14
50,44:6
50,46:7
50,47:7
50,49:12
50,51:7
50,52:3
50,53:3
50,55:12
50,57:12
51,1:1
51,8:1
51,9:1
51,12:1
51,14:2
51,21:5
51,23:5
51,24:7
51,25:7
51,27:1
51,29:7
51,30:2
51,32:1
51,35:8
51,37:8
51,38:7
51,39:8
51,40:7
51,41:7
51,42:7
51,49:5
52,1:5
52,3:2
52,6:2
52,8:5
52,9:5
52,12:5
52,14:6
52,16:2
52,17:2
52,20:2
52,21:9
52,23:9
52,24:11
52,25:11
52,27:5
52,29:11
52,30:6
52,32:5
52,33:3
52,35:12
52,37:12
52,38:11
52,39:12
52,40:11
52,41:11
52,42:11
52,44:3
52,46:4
52,47:4
52,49:9
52,51:4
53,1:5
53,3:2
53,6:2
53,8:5
53,9:5
53,12:5
53,14:6
53,16:2
53,17:2
53,20:2
53,21:9
53,23:9
53,24:11
53,25:11
53,27:5
53,29:11
53,30:6
53,32:5
53,33:3
53,35:12
53,37:12
53,38:11
53,39:12
53,40:11
53,41:11
53,42:11
53,44:3
53,46:4
53,47:4
53,49:9
53,51:4
54,1:9
54,2:1
54,3:6
54,5:4
54,6:6
54,7:3
54,8:9
54,9:9
54,10:1
54,11:3
54,12:9
54,13:4
54,14:10
54,15:4
54,16:6
54,17:6
54,18:3
54,19:4
54,20:6
54,21:13
54,23:13
54,24:15
54,25:15
54,26:1
54,27:9
54,28:1
54,29:15
54,30:10
54,31:4
54,32:9
54,33:7
54,34:4
54,35:16
54,37:16
54,38:15
54,39:16
54,40:15
54,41:15
54,42:15
54,44:7
54,46:8
54,47:8
54,48:1
54,49:13
54,50:1
54,51:8
54,52:4
54,53:4
55,24:2
55,25:2
55,29:2
55,35:3
55,37:3
55,38:2
55,39:3
55,40:2
55,41:2
55,42:2
56,1:9
56,2:1
56,3:6
56,5:4
56,6:6
56,7:3
56,8:9
56,9:9
56,10:1
56,11:3
56,12:9
56,13:4
56,14:10
56,15:4
56,16:6
56,17:6
56,18:3
56,19:4
56,20:6
56,21:13
56,23:13
56,24:15
56,25:15
56,26:1
56,27:9
56,28:1
56,29:15
56,30:10
56,31:4
56,32:9
56,33:7
56,34:4
56,35:16
56,37:16
56,38:15
56,39:16
56,40:15
56,41:15
56,42:15
56,44:7
56,46:8
56,47:8
56,48:1
56,49:13
56,50:1
56,51:8
56,52:4
56,53:4
56,55:13
57,24:2
57,25:2
57,29:2
57,35:3
57,37:3
57,38:2
57,39:3
57,40:2
57,41:2
57,42:2
58,24:2
58,25:2
58,29:2
58,35:3
58,37:3
58,38:2
58,39:3
58,40:2
58,41:2
58,42:2

<end>

<optimal SALBP-1 value>
22


<rand seed>
467321153

